p ds 20 5
1 3
1 5
1 7
1 8
1 9
1 10
1 11
1 12
1 14
1 15
1 17
1 18
1 19
1 20
2 5
2 11
2 12
2 15
2 17
2 19
2 20
3 4
3 8
3 9
3 10
3 11
3 12
3 13
3 17
3 18
3 20
4 5
4 9
4 12
4 13
4 14
4 15
4 18
4 19
4 20
5 8
5 9
5 10
5 11
5 17
5 18
5 19
5 20
6 7
6 8
6 9
6 12
6 13
6 15
6 16
6 17
6 20
7 11
7 12
7 14
7 15
7 16
7 17
8 10
8 12
8 13
8 14
8 15
8 16
8 17
8 20
9 11
9 13
9 16
9 17
9 18
9 19
10 11
10 15
10 16
10 17
11 12
11 13
11 14
11 15
11 18
12 13
12 14
12 15
12 17
12 18
12 19
12 20
13 14
13 15
13 16
13 19
13 20
14 15
14 16
14 18
14 20
15 16
15 19
15 20
16 18
17 18
17 19
17 20
18 19
18 20
19 20
